c uprop, v00.0, 
c reading from data/prog193.c.cnf
c done reading: 0
p cnf 169 767
-74 -95 0
-74 -91 0
74 91 95 0
-68 91 95 0
-68 -91 -95 0
68 91 -95 0
68 -91 95 0
74 -86 0
-84 -86 0
-74 84 86 0
-74 -79 84 0
74 -79 -84 0
74 79 84 0
-74 79 -84 0
-75 86 0
-72 -75 0
72 75 -86 0
-70 72 -86 0
-70 -72 86 0
70 72 86 0
70 -72 -86 0
-69 75 0
-66 -69 0
66 69 -75 0
66 -75 -93 0
-66 75 -93 0
66 75 93 0
-66 -75 93 0
69 -97 0
-88 -97 0
-69 88 97 0
-69 88 -98 0
69 -88 -98 0
69 88 98 0
-69 -88 98 0
97 -99 0
-81 -99 0
81 -97 99 0
81 -97 -100 0
-81 97 -100 0
81 97 100 0
-81 -97 100 0
99 -101 0
-77 -101 0
77 -99 101 0
77 -99 -102 0
-77 99 -102 0
77 99 102 0
-77 -99 102 0
72 -103 0
95 -103 0
-72 -95 103 0
-72 -95 -104 0
72 95 -104 0
-72 95 104 0
72 -95 104 0
-66 -91 105 0
-66 -103 105 0
-91 -103 105 0
66 91 -105 0
66 103 -105 0
91 103 -105 0
66 -105 -106 0
91 -105 -106 0
103 -105 -106 0
-66 105 106 0
-91 105 106 0
-103 105 106 0
-66 -91 -103 106 0
66 91 103 -106 0
-84 -88 107 0
-88 -105 107 0
-84 -105 107 0
84 88 -107 0
88 105 -107 0
84 105 -107 0
88 -107 -108 0
84 -107 -108 0
105 -107 -108 0
-88 107 108 0
-84 107 108 0
-105 107 108 0
-84 -88 -105 108 0
84 88 105 -108 0
-72 -81 109 0
-81 -107 109 0
-72 -107 109 0
72 81 -109 0
81 107 -109 0
72 107 -109 0
-64 81 -109 0
-64 72 -109 0
-64 107 -109 0
64 -81 109 0
64 -72 109 0
64 -107 109 0
64 -72 -81 -107 0
-64 72 81 107 0
63 -66 -77 0
63 -77 -109 0
63 -66 -109 0
-63 66 77 0
-63 77 109 0
-63 66 109 0
-62 -63 77 0
-62 -63 66 0
-62 -63 109 0
62 63 -77 0
62 63 -66 0
62 63 -109 0
62 -66 -77 -109 0
-62 66 77 109 0
-61 88 0
-61 63 0
61 -63 -88 0
-60 -63 -88 0
-60 63 88 0
60 63 -88 0
60 -63 88 0
-59 81 0
-59 61 0
59 -61 -81 0
-61 -81 -94 0
61 81 -94 0
61 -81 94 0
-61 81 94 0
77 -90 0
59 -90 0
-59 -77 90 0
-59 -77 -83 0
59 77 -83 0
59 -77 83 0
-59 77 83 0
-71 -95 0
-71 -91 0
71 91 95 0
-65 91 95 0
-65 -91 -95 0
65 91 -95 0
65 -91 95 0
71 -87 0
-84 -87 0
-71 84 87 0
-71 -80 84 0
71 -80 -84 0
71 80 84 0
-71 80 -84 0
-76 87 0
-76 -104 0
76 -87 104 0
-58 -87 104 0
-58 87 -104 0
58 87 104 0
58 -87 -104 0
-57 76 0
-57 -106 0
57 -76 106 0
-56 -76 106 0
-56 76 -106 0
56 76 106 0
56 -76 -106 0
-55 57 0
-55 -108 0
55 -57 108 0
-54 -57 108 0
-54 57 -108 0
54 57 108 0
54 -57 -108 0
-53 55 0
-53 -64 0
53 -55 64 0
-52 -55 64 0
-52 55 -64 0
52 55 64 0
52 -55 -64 0
-51 53 0
-51 -62 0
51 -53 62 0
-50 -53 62 0
-50 53 -62 0
50 53 62 0
50 -53 -62 0
-49 51 0
-49 -60 0
49 -51 60 0
-48 -51 60 0
-48 51 -60 0
48 51 60 0
48 -51 -60 0
-47 49 0
-47 -94 0
47 -49 94 0
-46 -49 94 0
-46 49 -94 0
46 49 94 0
46 -49 -94 0
-45 47 0
-45 -83 0
45 -47 83 0
-44 -47 83 0
-44 47 -83 0
44 47 83 0
44 -47 -83 0
-43 45 0
-43 -90 0
43 -45 90 0
-45 90 -110 0
45 -90 -110 0
45 90 110 0
-45 -90 110 0
-111 -113 0
-113 -114 0
111 113 114 0
111 114 -116 0
-111 -114 -116 0
-111 114 116 0
111 -114 116 0
113 -117 0
-117 -118 0
-113 117 118 0
-113 118 -120 0
113 -118 -120 0
113 118 120 0
-113 -118 120 0
117 -121 0
-121 -122 0
-117 121 122 0
-117 122 -124 0
117 -122 -124 0
117 122 124 0
-117 -122 124 0
121 -125 0
-125 -126 0
-121 125 126 0
-121 126 -128 0
121 -126 -128 0
121 126 128 0
-121 -126 128 0
125 -129 0
-129 -130 0
-125 129 130 0
-125 130 -132 0
125 -130 -132 0
125 130 132 0
-125 -130 132 0
129 -133 0
-133 -134 0
-129 133 134 0
-129 134 -136 0
129 -134 -136 0
129 134 136 0
-129 -134 136 0
133 -137 0
-137 -138 0
-133 137 138 0
-133 138 -140 0
133 -138 -140 0
133 138 140 0
-133 -138 140 0
122 -141 0
111 -141 0
-111 -122 141 0
-111 -122 -142 0
111 122 -142 0
111 -122 142 0
-111 122 142 0
-114 -126 143 0
-126 -141 143 0
-114 -141 143 0
114 126 -143 0
126 141 -143 0
114 141 -143 0
126 -143 -144 0
114 -143 -144 0
141 -143 -144 0
-126 143 144 0
-114 143 144 0
-141 143 144 0
-114 -126 -141 144 0
114 126 141 -144 0
-118 -130 145 0
-130 -143 145 0
-118 -143 145 0
118 130 -145 0
130 143 -145 0
118 143 -145 0
130 -145 -146 0
118 -145 -146 0
143 -145 -146 0
-130 145 146 0
-118 145 146 0
-143 145 146 0
-118 -130 -143 146 0
118 130 143 -146 0
-122 -134 147 0
-134 -145 147 0
-122 -145 147 0
122 134 -147 0
134 145 -147 0
122 145 -147 0
134 -147 -148 0
122 -147 -148 0
145 -147 -148 0
-134 147 148 0
-122 147 148 0
-145 147 148 0
-122 -134 -145 148 0
122 134 145 -148 0
-126 -138 149 0
-138 -147 149 0
-126 -147 149 0
126 138 -149 0
138 147 -149 0
126 147 -149 0
138 -149 -150 0
126 -149 -150 0
147 -149 -150 0
-138 149 150 0
-126 149 150 0
-147 149 150 0
-126 -138 -147 150 0
126 138 147 -150 0
130 -151 0
149 -151 0
-130 -149 151 0
-130 -149 -152 0
130 149 -152 0
-130 149 152 0
130 -149 152 0
134 -153 0
151 -153 0
-134 -151 153 0
-134 -151 -154 0
134 151 -154 0
-134 151 154 0
134 -151 154 0
138 -155 0
153 -155 0
-138 -153 155 0
-138 -153 -156 0
138 153 -156 0
-138 153 156 0
138 -153 156 0
144 -157 0
111 -157 0
-111 -144 157 0
-111 -144 -158 0
111 144 -158 0
111 -144 158 0
-111 144 158 0
-114 -146 159 0
-146 -157 159 0
-114 -157 159 0
114 146 -159 0
146 157 -159 0
114 157 -159 0
146 -159 -160 0
114 -159 -160 0
157 -159 -160 0
-146 159 160 0
-114 159 160 0
-157 159 160 0
-114 -146 -157 160 0
114 146 157 -160 0
-118 -148 161 0
-148 -159 161 0
-118 -159 161 0
118 148 -161 0
148 159 -161 0
118 159 -161 0
148 -161 -162 0
118 -161 -162 0
159 -161 -162 0
-148 161 162 0
-118 161 162 0
-159 161 162 0
-118 -148 -159 162 0
118 148 159 -162 0
-122 -150 163 0
-150 -161 163 0
-122 -161 163 0
122 150 -163 0
150 161 -163 0
122 161 -163 0
150 -163 -164 0
122 -163 -164 0
161 -163 -164 0
-150 163 164 0
-122 163 164 0
-161 163 164 0
-122 -150 -161 164 0
122 150 161 -164 0
-126 -152 165 0
-152 -163 165 0
-126 -163 165 0
126 152 -165 0
152 163 -165 0
126 163 -165 0
152 -165 -166 0
126 -165 -166 0
163 -165 -166 0
-152 165 166 0
-126 165 166 0
-163 165 166 0
-126 -152 -163 166 0
126 152 163 -166 0
-130 -154 167 0
-154 -165 167 0
-130 -165 167 0
130 154 -167 0
154 165 -167 0
130 165 -167 0
154 -167 -168 0
130 -167 -168 0
165 -167 -168 0
-154 167 168 0
-130 167 168 0
-165 167 168 0
-130 -154 -165 168 0
130 154 165 -168 0
-134 -156 169 0
-156 -167 169 0
-134 -167 169 0
134 156 -169 0
156 167 -169 0
134 167 -169 0
-96 156 -169 0
-96 134 -169 0
-96 167 -169 0
96 -156 169 0
96 -134 169 0
96 -167 169 0
96 -134 -156 -167 0
-96 134 156 167 0
92 -138 -155 0
92 -155 -169 0
92 -138 -169 0
-92 138 155 0
-92 155 169 0
-92 138 169 0
-85 -92 155 0
-85 -92 138 0
-85 -92 169 0
85 92 -155 0
85 92 -138 0
85 92 -169 0
85 -138 -155 -169 0
-85 138 155 169 0
-73 160 0
-73 111 0
73 -111 -160 0
-67 -111 -160 0
-67 111 160 0
67 111 -160 0
67 -111 160 0
89 -114 -162 0
-73 89 -162 0
-73 89 -114 0
-89 114 162 0
73 -89 162 0
73 -89 114 0
-82 -89 162 0
-82 -89 114 0
73 -82 -89 0
82 89 -162 0
82 89 -114 0
-73 82 89 0
-73 82 -114 -162 0
73 -82 114 162 0
78 -118 -164 0
78 -89 -164 0
78 -89 -118 0
-78 118 164 0
-78 89 164 0
-78 89 118 0
-78 -112 164 0
-78 -112 118 0
-78 89 -112 0
78 112 -164 0
78 112 -118 0
78 -89 112 0
-89 112 -118 -164 0
89 -112 118 164 0
115 -122 -166 0
-78 115 -166 0
-78 115 -122 0
-115 122 166 0
78 -115 166 0
78 -115 122 0
-115 -119 166 0
-115 -119 122 0
78 -115 -119 0
115 119 -166 0
115 119 -122 0
-78 115 119 0
-78 119 -122 -166 0
78 -119 122 166 0
123 -126 -168 0
-115 123 -168 0
-115 123 -126 0
-123 126 168 0
115 -123 168 0
115 -123 126 0
-123 -127 168 0
-123 126 -127 0
115 -123 -127 0
123 127 -168 0
123 -126 127 0
-115 123 127 0
-115 -126 127 -168 0
115 126 -127 168 0
-96 -130 131 0
-96 -123 131 0
-123 -130 131 0
96 130 -131 0
96 123 -131 0
123 130 -131 0
96 -131 -135 0
130 -131 -135 0
123 -131 -135 0
-96 131 135 0
-130 131 135 0
-123 131 135 0
-96 -123 -130 135 0
96 123 130 -135 0
-85 -134 139 0
-85 -131 139 0
-131 -134 139 0
85 134 -139 0
85 131 -139 0
131 134 -139 0
-42 85 -139 0
-42 134 -139 0
-42 131 -139 0
42 -85 139 0
42 -134 139 0
42 -131 139 0
42 -85 -131 -134 0
-42 85 131 134 0
41 -92 -138 0
41 -92 -139 0
41 -138 -139 0
-41 92 138 0
-41 92 139 0
-41 138 139 0
-40 -41 92 0
-40 -41 138 0
-40 -41 139 0
40 41 -92 0
40 41 -138 0
40 41 -139 0
40 -92 -138 -139 0
-40 92 138 139 0
-39 -111 0
-39 -114 0
39 111 114 0
-38 111 114 0
-38 -111 -114 0
38 -111 114 0
38 111 -114 0
-37 39 0
-37 -118 0
37 -39 118 0
-36 -39 118 0
-36 39 -118 0
36 39 118 0
36 -39 -118 0
-35 37 0
-35 -142 0
35 -37 142 0
-34 -37 142 0
-34 37 -142 0
34 37 142 0
34 -37 -142 0
-33 35 0
-33 -158 0
33 -35 158 0
-32 -35 158 0
-32 35 -158 0
32 35 158 0
32 -35 -158 0
-31 33 0
-31 -67 0
31 -33 67 0
-30 -33 67 0
-30 33 -67 0
30 33 67 0
30 -33 -67 0
-29 31 0
-29 -82 0
29 -31 82 0
-28 -31 82 0
-28 31 -82 0
28 31 82 0
28 -31 -82 0
-27 29 0
-27 -112 0
27 -29 112 0
-26 -29 112 0
-26 29 -112 0
26 29 112 0
26 -29 -112 0
-25 27 0
-25 -119 0
25 -27 119 0
-24 -27 119 0
-24 27 -119 0
24 27 119 0
24 -27 -119 0
-23 25 0
-23 -127 0
23 -25 127 0
-22 -25 127 0
-22 25 -127 0
22 25 127 0
22 -25 -127 0
-21 23 0
-21 -135 0
21 -23 135 0
-20 -23 135 0
-20 23 -135 0
20 23 135 0
20 -23 -135 0
-19 21 0
-19 -42 0
19 -21 42 0
-18 -21 42 0
-18 21 -42 0
18 21 42 0
18 -21 -42 0
-17 19 0
-17 -40 0
17 -19 40 0
-16 -19 40 0
-16 19 -40 0
16 19 40 0
16 -19 -40 0
-15 17 0
-15 -41 0
15 -17 41 0
-14 -17 41 0
-14 17 -41 0
14 17 41 0
14 -17 -41 0
-13 95 0
-13 111 0
13 -95 -111 0
-95 111 0
95 -111 0
12 -91 -114 0
12 -13 -91 0
12 -13 -114 0
-12 91 114 0
-12 13 91 0
-12 13 114 0
12 -91 0
12 -114 0
12 -13 0
-13 -91 -114 0
11 -84 -118 0
11 -12 -84 0
11 -12 -118 0
-11 84 118 0
-11 12 84 0
-11 12 118 0
11 -84 0
11 -118 0
11 -12 0
-12 -84 -118 0
10 -104 -142 0
10 -11 -104 0
10 -11 -142 0
-10 104 142 0
-10 11 104 0
-10 11 142 0
-10 104 0
-10 142 0
-10 11 0
11 104 142 0
9 -106 -158 0
9 -10 -106 0
9 -10 -158 0
-9 106 158 0
-9 10 106 0
-9 10 158 0
-9 106 0
-9 158 0
-9 10 0
10 106 158 0
8 -67 -108 0
8 -9 -108 0
8 -9 -67 0
-8 67 108 0
-8 9 108 0
-8 9 67 0
-8 108 0
-8 67 0
-8 9 0
9 67 108 0
7 -64 -82 0
7 -8 -64 0
7 -8 -82 0
-7 64 82 0
-7 8 64 0
-7 8 82 0
7 -64 0
7 -82 0
7 -8 0
-8 -64 -82 0
6 -62 -112 0
6 -7 -62 0
6 -7 -112 0
-6 62 112 0
-6 7 62 0
-6 7 112 0
-6 62 0
-6 112 0
-6 7 0
7 62 112 0
5 -60 -119 0
5 -6 -60 0
5 -6 -119 0
-5 60 119 0
-5 6 60 0
-5 6 119 0
5 -60 0
5 -119 0
5 -6 0
-6 -60 -119 0
4 -94 -127 0
4 -5 -94 0
4 -5 -127 0
-4 94 127 0
-4 5 94 0
-4 5 127 0
4 -94 0
4 -127 0
4 -5 0
-5 -94 -127 0
3 -83 -135 0
3 -4 -83 0
3 -4 -135 0
-3 83 135 0
-3 4 83 0
-3 4 135 0
3 -83 0
3 -135 0
3 -4 0
-4 -83 -135 0
2 -42 -90 0
2 -3 -90 0
2 -3 -42 0
-2 42 90 0
-2 3 90 0
-2 3 42 0
2 -90 0
2 -42 0
2 -3 0
-3 -42 -90 0
-1 40 0
-1 2 0
1 -2 -40 0
2 -40 0
-2 40 0
-1 -41 0
1 -41 0
-1 41 0
